0 0 0 0
0 1 1 0
0 2 0 0
0 3 0 0
0 4 0 8
0 5 0 8
0 6 0 8
0 7 1 10
0 8 1 10
0 9 0 13
0 10 1 15
0 11 0 14
0 12 0 18
0 13 0 2
0 14 1 2
0 15 1 19
0 16 0 18
0 17 0 26
0 18 1 20
0 19 0 26
0 20 0 27
0 21 1 10
0 22 0 20
0 23 0 21
0 24 1 29
0 25 0 18
0 26 1 24
0 27 0 27
0 28 2 29
0 29 0 30
0 30 0 27
0 31 0 33
